instances/shortest_path/discrete_knapsack_uncertainty/nohadani_5_10.lp
\ Model nohadani_5_10
\ LP format - for model browsing. Use MPS format to capture full model detail.
\ Signature: 0xa1d49c5c4aa7c587
Minimize
  78.02563681252464 y[0,1] + 77 y[0,2] + 39.21734310225516 y[0,4]
   + 78.02563681252464 y[1,0] + 2.23606797749979 y[1,2]
   + 75.8023746329889 y[1,4] + 77 y[2,0] + 2.23606797749979 y[2,1]
   + 79.05694150420949 y[2,3] + 73.92563831310488 y[2,4]
   + 79.05694150420949 y[3,2] + 54.45181356024793 y[3,4]
   + 39.21734310225516 y[4,0] + 75.8023746329889 y[4,1]
   + 73.92563831310488 y[4,2] + 54.45181356024793 y[4,3] + x[0,1] + x[0,2]
   + x[0,4] + x[1,0] + x[1,2] + x[1,4] + x[2,0] + x[2,1] + x[2,3] + x[2,4]
   + x[3,2] + x[3,4] + x[4,0] + x[4,1] + x[4,2] + x[4,3]
   + 7.802563681252464 r[0,1] + 7.7 r[0,2] + 3.921734310225516 r[0,4]
   + 7.802563681252464 r[1,0] + 0.223606797749979 r[1,2]
   + 7.58023746329889 r[1,4] + 7.7 r[2,0] + 0.223606797749979 r[2,1]
   + 7.905694150420949 r[2,3] + 7.392563831310489 r[2,4]
   + 7.905694150420949 r[3,2] + 5.445181356024793 r[3,4]
   + 3.921734310225516 r[4,0] + 7.58023746329889 r[4,1]
   + 7.392563831310489 r[4,2] + 5.445181356024793 r[4,3]
Subject To
 flow_cons_inner_nodes[1]: y[0,1] - y[1,0] - y[1,2] - y[1,4] + y[2,1]
   + y[4,1] = 0
 flow_cons_inner_nodes[2]: y[0,2] + y[1,2] - y[2,0] - y[2,1] - y[2,3]
   - y[2,4] + y[3,2] + y[4,2] = 0
 flow_cons_inner_nodes[4]: y[0,4] + y[1,4] + y[2,4] + y[3,4] - y[4,0]
   - y[4,1] - y[4,2] - y[4,3] = 0
 flow_cons_source: y[0,1] + y[0,2] + y[0,4] - y[1,0] - y[2,0] - y[4,0] = 1
 flow_cons_target: y[2,3] - y[3,2] - y[3,4] + y[4,3] = 1
 primal_lower: 5.332561263178635 x[0,1] + 0.17221236698957 x[0,2]
   + 0.756619093647163 x[0,4] + 2.084702965661103 x[1,0]
   + 3.492295192271539 x[1,2] + 2.060152423230754 x[1,4]
   + 0.4152952677735737 x[2,0] + 4.122411267979753 x[2,1]
   + 5.776148359279064 x[2,3] + 3.568225053556269 x[2,4]
   + 3.009651420627972 x[3,2] + 0.9910263326430996 x[3,4]
   + 2.948697369747522 x[4,0] + 3.263335231618455 x[4,1]
   + 5.04699867096546 x[4,2] + 5.750361092452897 x[4,3] + 99 u[0,1]
   + 84 u[0,2] + 14 u[0,4] + 35 u[1,0] + 100 u[1,2] + 53 u[1,4] + 29 u[2,0]
   + 23 u[2,1] + 37 u[2,3] + 90 u[2,4] + 79 u[3,2] + 43 u[3,4] + 92 u[4,0]
   + 36 u[4,1] + 68 u[4,2] + 96 u[4,3] <= 100
 mccormick1[0,1]: - u[0,1] + r[0,1] <= 0
 mccormick1[0,2]: - u[0,2] + r[0,2] <= 0
 mccormick1[0,4]: - u[0,4] + r[0,4] <= 0
 mccormick1[1,0]: - u[1,0] + r[1,0] <= 0
 mccormick1[1,2]: - u[1,2] + r[1,2] <= 0
 mccormick1[1,4]: - u[1,4] + r[1,4] <= 0
 mccormick1[2,0]: - u[2,0] + r[2,0] <= 0
 mccormick1[2,1]: - u[2,1] + r[2,1] <= 0
 mccormick1[2,3]: - u[2,3] + r[2,3] <= 0
 mccormick1[2,4]: - u[2,4] + r[2,4] <= 0
 mccormick1[3,2]: - u[3,2] + r[3,2] <= 0
 mccormick1[3,4]: - u[3,4] + r[3,4] <= 0
 mccormick1[4,0]: - u[4,0] + r[4,0] <= 0
 mccormick1[4,1]: - u[4,1] + r[4,1] <= 0
 mccormick1[4,2]: - u[4,2] + r[4,2] <= 0
 mccormick1[4,3]: - u[4,3] + r[4,3] <= 0
 mccormick2[0,1]: - y[0,1] + r[0,1] <= 0
 mccormick2[0,2]: - y[0,2] + r[0,2] <= 0
 mccormick2[0,4]: - y[0,4] + r[0,4] <= 0
 mccormick2[1,0]: - y[1,0] + r[1,0] <= 0
 mccormick2[1,2]: - y[1,2] + r[1,2] <= 0
 mccormick2[1,4]: - y[1,4] + r[1,4] <= 0
 mccormick2[2,0]: - y[2,0] + r[2,0] <= 0
 mccormick2[2,1]: - y[2,1] + r[2,1] <= 0
 mccormick2[2,3]: - y[2,3] + r[2,3] <= 0
 mccormick2[2,4]: - y[2,4] + r[2,4] <= 0
 mccormick2[3,2]: - y[3,2] + r[3,2] <= 0
 mccormick2[3,4]: - y[3,4] + r[3,4] <= 0
 mccormick2[4,0]: - y[4,0] + r[4,0] <= 0
 mccormick2[4,1]: - y[4,1] + r[4,1] <= 0
 mccormick2[4,2]: - y[4,2] + r[4,2] <= 0
 mccormick2[4,3]: - y[4,3] + r[4,3] <= 0
 mccormick3[0,1]: - y[0,1] - u[0,1] + r[0,1] >= -1
 mccormick3[0,2]: - y[0,2] - u[0,2] + r[0,2] >= -1
 mccormick3[0,4]: - y[0,4] - u[0,4] + r[0,4] >= -1
 mccormick3[1,0]: - y[1,0] - u[1,0] + r[1,0] >= -1
 mccormick3[1,2]: - y[1,2] - u[1,2] + r[1,2] >= -1
 mccormick3[1,4]: - y[1,4] - u[1,4] + r[1,4] >= -1
 mccormick3[2,0]: - y[2,0] - u[2,0] + r[2,0] >= -1
 mccormick3[2,1]: - y[2,1] - u[2,1] + r[2,1] >= -1
 mccormick3[2,3]: - y[2,3] - u[2,3] + r[2,3] >= -1
 mccormick3[2,4]: - y[2,4] - u[2,4] + r[2,4] >= -1
 mccormick3[3,2]: - y[3,2] - u[3,2] + r[3,2] >= -1
 mccormick3[3,4]: - y[3,4] - u[3,4] + r[3,4] >= -1
 mccormick3[4,0]: - y[4,0] - u[4,0] + r[4,0] >= -1
 mccormick3[4,1]: - y[4,1] - u[4,1] + r[4,1] >= -1
 mccormick3[4,2]: - y[4,2] - u[4,2] + r[4,2] >= -1
 mccormick3[4,3]: - y[4,3] - u[4,3] + r[4,3] >= -1
Bounds
Binaries
 y[0,1] y[0,2] y[0,4] y[1,0] y[1,2] y[1,4] y[2,0] y[2,1] y[2,3] y[2,4]
 y[3,2] y[3,4] y[4,0] y[4,1] y[4,2] y[4,3] x[0,1] x[0,2] x[0,4] x[1,0]
 x[1,2] x[1,4] x[2,0] x[2,1] x[2,3] x[2,4] x[3,2] x[3,4] x[4,0] x[4,1]
 x[4,2] x[4,3] u[0,1] u[0,2] u[0,4] u[1,0] u[1,2] u[1,4] u[2,0] u[2,1]
 u[2,3] u[2,4] u[3,2] u[3,4] u[4,0] u[4,1] u[4,2] u[4,3] r[0,1] r[0,2]
 r[0,4] r[1,0] r[1,2] r[1,4] r[2,0] r[2,1] r[2,3] r[2,4] r[3,2] r[3,4]
 r[4,0] r[4,1] r[4,2] r[4,3]
End
